minimize
 - 1000.0 y00  - 1000.0 y10  - 1000.0 y20  - 1000.0 y30  + 7.5 x0000  + 7.5 x0010  + 2.5 x0020  + 2.5 x0030  + 0.0 x0100  + 0.0 x0110  + 0.0 x0120  + 0.0 x0130  + 15.0 x1000  + 15.0 x1010  + 5.0 x1020  + 5.0 x1030  + 0.0 x1100  + 0.0 x1110  + 0.0 x1120  + 0.0 x1130  + 0.0 x2000  + 0.0 x2010  + 0.0 x2020  + 0.0 x2030  + 2.5 x2100  + 2.5 x2110  + 7.5 x2120  + 7.5 x2130  + 0.0 x3000  + 0.0 x3010  + 0.0 x3020  + 0.0 x3030  + 5.0 x3100  + 5.0 x3110  + 15.0 x3120  + 15.0 x3130  + 7500.0 x4000  + 7500.0 x4010  + 2500.0 x4020  + 2500.0 x4030  + 15000.0 x5000  + 15000.0 x5010  + 5000.0 x5020  + 5000.0 x5030  + 7500.0 x6000  + 7500.0 x6010  + 2500.0 x6020  + 2500.0 x6030  + 15000.0 x7000  + 15000.0 x7010  + 5000.0 x7020  + 5000.0 x7030 
subject to
bundle,0,0,0,0,0:  y00 =  +0.0 -> +x0000 =  +0.0 
bundle,0,0,1,0,0:  y00 =  +0.0 -> +x0100 =  +0.0 
bundle,0,1,0,0,0:  y00 =  +0.0 -> +x1000 =  +0.0 
bundle,0,1,1,0,0:  y00 =  +0.0 -> +x1100 =  +0.0 
bundle,0,2,0,0,0:  y00 =  +0.0 -> +x2000 =  +0.0 
bundle,0,2,1,0,0:  y00 =  +0.0 -> +x2100 =  +0.0 
bundle,0,3,0,0,0:  y00 =  +0.0 -> +x3000 =  +0.0 
bundle,0,3,1,0,0:  y00 =  +0.0 -> +x3100 =  +0.0 
bundle,0,4,0,0,0:  y00 =  +0.0 -> +x4000 =  +0.0 
bundle,0,5,0,0,0:  y00 =  +0.0 -> +x5000 =  +0.0 
bundle,0,6,0,0,0:  y00 =  +0.0 -> +x6000 =  +0.0 
bundle,0,7,0,0,0:  y00 =  +0.0 -> +x7000 =  +0.0 
bundle,1,$0,0,0:  y00 =  +1.0 -> + 75.0 x0000  + 75.0 x1000  + 75.0 x2000  + 75.0 x3000  + 75.0 x4000  + 75.0 x5000  + 75.0 x6000  + 75.0 x7000 =  +75.0 
bundle,1,$1,0,0:  y00 =  +1.0 -> + 25.0 x0100  + 25.0 x1100  + 25.0 x2100  + 25.0 x3100  + 25.0 x4100  + 25.0 x5100  + 25.0 x6100  + 25.0 x7100 =  +25.0 
bundle,0,0,0,1,0:  y10 =  +0.0 -> +x0010 =  +0.0 
bundle,0,0,1,1,0:  y10 =  +0.0 -> +x0110 =  +0.0 
bundle,0,1,0,1,0:  y10 =  +0.0 -> +x1010 =  +0.0 
bundle,0,1,1,1,0:  y10 =  +0.0 -> +x1110 =  +0.0 
bundle,0,2,0,1,0:  y10 =  +0.0 -> +x2010 =  +0.0 
bundle,0,2,1,1,0:  y10 =  +0.0 -> +x2110 =  +0.0 
bundle,0,3,0,1,0:  y10 =  +0.0 -> +x3010 =  +0.0 
bundle,0,3,1,1,0:  y10 =  +0.0 -> +x3110 =  +0.0 
bundle,0,4,0,1,0:  y10 =  +0.0 -> +x4010 =  +0.0 
bundle,0,5,0,1,0:  y10 =  +0.0 -> +x5010 =  +0.0 
bundle,0,6,0,1,0:  y10 =  +0.0 -> +x6010 =  +0.0 
bundle,0,7,0,1,0:  y10 =  +0.0 -> +x7010 =  +0.0 
bundle,1,$0,1,0:  y10 =  +1.0 -> + 75.0 x0010  + 75.0 x1010  + 75.0 x2010  + 75.0 x3010  + 75.0 x4010  + 75.0 x5010  + 75.0 x6010  + 75.0 x7010 =  +75.0 
bundle,1,$1,1,0:  y10 =  +1.0 -> + 25.0 x0110  + 25.0 x1110  + 25.0 x2110  + 25.0 x3110  + 25.0 x4110  + 25.0 x5110  + 25.0 x6110  + 25.0 x7110 =  +25.0 
bundle,0,0,0,2,0:  y20 =  +0.0 -> +x0020 =  +0.0 
bundle,0,0,1,2,0:  y20 =  +0.0 -> +x0120 =  +0.0 
bundle,0,1,0,2,0:  y20 =  +0.0 -> +x1020 =  +0.0 
bundle,0,1,1,2,0:  y20 =  +0.0 -> +x1120 =  +0.0 
bundle,0,2,0,2,0:  y20 =  +0.0 -> +x2020 =  +0.0 
bundle,0,2,1,2,0:  y20 =  +0.0 -> +x2120 =  +0.0 
bundle,0,3,0,2,0:  y20 =  +0.0 -> +x3020 =  +0.0 
bundle,0,3,1,2,0:  y20 =  +0.0 -> +x3120 =  +0.0 
bundle,0,4,0,2,0:  y20 =  +0.0 -> +x4020 =  +0.0 
bundle,0,5,0,2,0:  y20 =  +0.0 -> +x5020 =  +0.0 
bundle,0,6,0,2,0:  y20 =  +0.0 -> +x6020 =  +0.0 
bundle,0,7,0,2,0:  y20 =  +0.0 -> +x7020 =  +0.0 
bundle,1,$0,2,0:  y20 =  +1.0 -> + 25.0 x0020  + 25.0 x1020  + 25.0 x2020  + 25.0 x3020  + 25.0 x4020  + 25.0 x5020  + 25.0 x6020  + 25.0 x7020 =  +25.0 
bundle,1,$1,2,0:  y20 =  +1.0 -> + 75.0 x0120  + 75.0 x1120  + 75.0 x2120  + 75.0 x3120  + 75.0 x4120  + 75.0 x5120  + 75.0 x6120  + 75.0 x7120 =  +75.0 
bundle,0,0,0,3,0:  y30 =  +0.0 -> +x0030 =  +0.0 
bundle,0,0,1,3,0:  y30 =  +0.0 -> +x0130 =  +0.0 
bundle,0,1,0,3,0:  y30 =  +0.0 -> +x1030 =  +0.0 
bundle,0,1,1,3,0:  y30 =  +0.0 -> +x1130 =  +0.0 
bundle,0,2,0,3,0:  y30 =  +0.0 -> +x2030 =  +0.0 
bundle,0,2,1,3,0:  y30 =  +0.0 -> +x2130 =  +0.0 
bundle,0,3,0,3,0:  y30 =  +0.0 -> +x3030 =  +0.0 
bundle,0,3,1,3,0:  y30 =  +0.0 -> +x3130 =  +0.0 
bundle,0,4,0,3,0:  y30 =  +0.0 -> +x4030 =  +0.0 
bundle,0,5,0,3,0:  y30 =  +0.0 -> +x5030 =  +0.0 
bundle,0,6,0,3,0:  y30 =  +0.0 -> +x6030 =  +0.0 
bundle,0,7,0,3,0:  y30 =  +0.0 -> +x7030 =  +0.0 
bundle,1,$0,3,0:  y30 =  +1.0 -> + 25.0 x0030  + 25.0 x1030  + 25.0 x2030  + 25.0 x3030  + 25.0 x4030  + 25.0 x5030  + 25.0 x6030  + 25.0 x7030 =  +25.0 
bundle,1,$1,3,0:  y30 =  +1.0 -> + 75.0 x0130  + 75.0 x1130  + 75.0 x2130  + 75.0 x3130  + 75.0 x4130  + 75.0 x5130  + 75.0 x6130  + 75.0 x7130 =  +75.0 
provider 0,0:  + 75.0 x0000  + 75.0 x0010  + 25.0 x0020  + 25.0 x0030 <=  +250.0 
provider 0,1:  + 25.0 x0100  + 25.0 x0110  + 75.0 x0120  + 75.0 x0130 <=  +0.0 
provider 1,0:  + 75.0 x1000  + 75.0 x1010  + 25.0 x1020  + 25.0 x1030 <=  +250.0 
provider 1,1:  + 25.0 x1100  + 25.0 x1110  + 75.0 x1120  + 75.0 x1130 <=  +0.0 
provider 2,0:  + 75.0 x2000  + 75.0 x2010  + 25.0 x2020  + 25.0 x2030 <=  +0.0 
provider 2,1:  + 25.0 x2100  + 25.0 x2110  + 75.0 x2120  + 75.0 x2130 <=  +250.0 
provider 3,0:  + 75.0 x3000  + 75.0 x3010  + 25.0 x3020  + 25.0 x3030 <=  +0.0 
provider 3,1:  + 25.0 x3100  + 25.0 x3110  + 75.0 x3120  + 75.0 x3130 <=  +250.0 
provider 4,0:  + 75.0 x4000  + 75.0 x4010  + 25.0 x4020  + 25.0 x4030 <=  +100.0 
provider 5,0:  + 75.0 x5000  + 75.0 x5010  + 25.0 x5020  + 25.0 x5030 <=  +0.0 
provider 6,0:  + 75.0 x6000  + 75.0 x6010  + 25.0 x6020  + 25.0 x6030 <=  +50.0 
provider 7,0:  + 75.0 x7000  + 75.0 x7010  + 25.0 x7020  + 25.0 x7030 <=  +50.0 
winner 0,0,0:  +x0000  +x1000  +x2000  +x3000  +x4000  +x5000  +x6000  +x7000 <=  +1.0 
winner 0,0,1:  +x0100  +x1100  +x2100  +x3100  +x4100  +x5100  +x6100  +x7100 <=  +1.0 
winner 1,0,0:  +x0010  +x1010  +x2010  +x3010  +x4010  +x5010  +x6010  +x7010 <=  +1.0 
winner 1,0,1:  +x0110  +x1110  +x2110  +x3110  +x4110  +x5110  +x6110  +x7110 <=  +1.0 
winner 2,0,0:  +x0020  +x1020  +x2020  +x3020  +x4020  +x5020  +x6020  +x7020 <=  +1.0 
winner 2,0,1:  +x0120  +x1120  +x2120  +x3120  +x4120  +x5120  +x6120  +x7120 <=  +1.0 
winner 3,0,0:  +x0030  +x1030  +x2030  +x3030  +x4030  +x5030  +x6030  +x7030 <=  +1.0 
winner 3,0,1:  +x0130  +x1130  +x2130  +x3130  +x4130  +x5130  +x6130  +x7130 <=  +1.0 
bidY 0:  +y00 <=  +1.0 
bidY 1:  +y10 <=  +1.0 
bidY 2:  +y20 <=  +1.0 
bidY 3:  +y30 <=  +1.0 
bidX 0,0,0:  +x0000  +x0001 <=  +1.0 
bidX 0,0,1:  +x0010  +x0011 <=  +1.0 
bidX 0,0,2:  +x0020  +x0021 <=  +1.0 
bidX 0,0,3:  +x0030  +x0031 <=  +1.0 
bidX 0,1,0:  +x0100  +x0101 <=  +1.0 
bidX 0,1,1:  +x0110  +x0111 <=  +1.0 
bidX 0,1,2:  +x0120  +x0121 <=  +1.0 
bidX 0,1,3:  +x0130  +x0131 <=  +1.0 
bidX 0,2,0:  +x0200  +x0201 <=  +1.0 
bidX 0,2,1:  +x0210  +x0211 <=  +1.0 
bidX 0,2,2:  +x0220  +x0221 <=  +1.0 
bidX 0,2,3:  +x0230  +x0231 <=  +1.0 
bidX 1,0,0:  +x1000  +x1001 <=  +1.0 
bidX 1,0,1:  +x1010  +x1011 <=  +1.0 
bidX 1,0,2:  +x1020  +x1021 <=  +1.0 
bidX 1,0,3:  +x1030  +x1031 <=  +1.0 
bidX 1,1,0:  +x1100  +x1101 <=  +1.0 
bidX 1,1,1:  +x1110  +x1111 <=  +1.0 
bidX 1,1,2:  +x1120  +x1121 <=  +1.0 
bidX 1,1,3:  +x1130  +x1131 <=  +1.0 
bidX 1,2,0:  +x1200  +x1201 <=  +1.0 
bidX 1,2,1:  +x1210  +x1211 <=  +1.0 
bidX 1,2,2:  +x1220  +x1221 <=  +1.0 
bidX 1,2,3:  +x1230  +x1231 <=  +1.0 
bidX 2,0,0:  +x2000  +x2001 <=  +1.0 
bidX 2,0,1:  +x2010  +x2011 <=  +1.0 
bidX 2,0,2:  +x2020  +x2021 <=  +1.0 
bidX 2,0,3:  +x2030  +x2031 <=  +1.0 
bidX 2,1,0:  +x2100  +x2101 <=  +1.0 
bidX 2,1,1:  +x2110  +x2111 <=  +1.0 
bidX 2,1,2:  +x2120  +x2121 <=  +1.0 
bidX 2,1,3:  +x2130  +x2131 <=  +1.0 
bidX 2,2,0:  +x2200  +x2201 <=  +1.0 
bidX 2,2,1:  +x2210  +x2211 <=  +1.0 
bidX 2,2,2:  +x2220  +x2221 <=  +1.0 
bidX 2,2,3:  +x2230  +x2231 <=  +1.0 
bidX 3,0,0:  +x3000  +x3001 <=  +1.0 
bidX 3,0,1:  +x3010  +x3011 <=  +1.0 
bidX 3,0,2:  +x3020  +x3021 <=  +1.0 
bidX 3,0,3:  +x3030  +x3031 <=  +1.0 
bidX 3,1,0:  +x3100  +x3101 <=  +1.0 
bidX 3,1,1:  +x3110  +x3111 <=  +1.0 
bidX 3,1,2:  +x3120  +x3121 <=  +1.0 
bidX 3,1,3:  +x3130  +x3131 <=  +1.0 
bidX 3,2,0:  +x3200  +x3201 <=  +1.0 
bidX 3,2,1:  +x3210  +x3211 <=  +1.0 
bidX 3,2,2:  +x3220  +x3221 <=  +1.0 
bidX 3,2,3:  +x3230  +x3231 <=  +1.0 
bidX 4,0,0:  +x4000 <=  +1.0 
bidX 4,0,1:  +x4010 <=  +1.0 
bidX 4,0,2:  +x4020 <=  +1.0 
bidX 4,0,3:  +x4030 <=  +1.0 
bidX 4,1,0:  +x4100 <=  +1.0 
bidX 4,1,1:  +x4110 <=  +1.0 
bidX 4,1,2:  +x4120 <=  +1.0 
bidX 4,1,3:  +x4130 <=  +1.0 
bidX 4,2,0:  +x4200 <=  +1.0 
bidX 4,2,1:  +x4210 <=  +1.0 
bidX 4,2,2:  +x4220 <=  +1.0 
bidX 4,2,3:  +x4230 <=  +1.0 
bidX 5,0,0:  +x5000 <=  +1.0 
bidX 5,0,1:  +x5010 <=  +1.0 
bidX 5,0,2:  +x5020 <=  +1.0 
bidX 5,0,3:  +x5030 <=  +1.0 
bidX 5,1,0:  +x5100 <=  +1.0 
bidX 5,1,1:  +x5110 <=  +1.0 
bidX 5,1,2:  +x5120 <=  +1.0 
bidX 5,1,3:  +x5130 <=  +1.0 
bidX 5,2,0:  +x5200 <=  +1.0 
bidX 5,2,1:  +x5210 <=  +1.0 
bidX 5,2,2:  +x5220 <=  +1.0 
bidX 5,2,3:  +x5230 <=  +1.0 
bidX 6,0,0:  +x6000 <=  +1.0 
bidX 6,0,1:  +x6010 <=  +1.0 
bidX 6,0,2:  +x6020 <=  +1.0 
bidX 6,0,3:  +x6030 <=  +1.0 
bidX 6,1,0:  +x6100 <=  +1.0 
bidX 6,1,1:  +x6110 <=  +1.0 
bidX 6,1,2:  +x6120 <=  +1.0 
bidX 6,1,3:  +x6130 <=  +1.0 
bidX 6,2,0:  +x6200 <=  +1.0 
bidX 6,2,1:  +x6210 <=  +1.0 
bidX 6,2,2:  +x6220 <=  +1.0 
bidX 6,2,3:  +x6230 <=  +1.0 
bidX 7,0,0:  +x7000 <=  +1.0 
bidX 7,0,1:  +x7010 <=  +1.0 
bidX 7,0,2:  +x7020 <=  +1.0 
bidX 7,0,3:  +x7030 <=  +1.0 
bidX 7,1,0:  +x7100 <=  +1.0 
bidX 7,1,1:  +x7110 <=  +1.0 
bidX 7,1,2:  +x7120 <=  +1.0 
bidX 7,1,3:  +x7130 <=  +1.0 
bidX 7,2,0:  +x7200 <=  +1.0 
bidX 7,2,1:  +x7210 <=  +1.0 
bidX 7,2,2:  +x7220 <=  +1.0 
bidX 7,2,3:  +x7230 <=  +1.0 
binary
 y00  y10  y20  y30  x0000  x0010  x0020  x0030  x0100  x0110  x0120  x0130  x1000  x1010  x1020  x1030  x1100  x1110  x1120  x1130  x2000  x2010  x2020  x2030  x2100  x2110  x2120  x2130  x3000  x3010  x3020  x3030  x3100  x3110  x3120  x3130  x4000  x4010  x4020  x4030  x5000  x5010  x5020  x5030  x6000  x6010  x6020  x6030  x7000  x7010  x7020  x7030 
end